p cnf 0 0
c help to minisat to remove posibilities
1 2 0
3 4 0
5 6 0
7 8 0
9 10 0
11 12 0
c proper colo
1 13 14 0
3 15 16 0
5 17 18 0
7 19 20 0
9 21 22 0
11 23 24 0
-13 3 0
-13 7 0
-13 4 8 0
-13 -4 -8 0
13 -3 -7 4 -8 0
13 -3 -7 -4 8 0
-14 5 0
-14 9 0
-14 6 10 0
-14 -6 -10 0
14 -5 -9 6 -10 0
14 -5 -9 -6 10 0
-15 1 0
-15 7 0
-15 2 8 0
-15 -2 -8 0
15 -1 -7 2 -8 0
15 -1 -7 -2 8 0
-16 5 0
-16 11 0
-16 6 12 0
-16 -6 -12 0
16 -5 -11 6 -12 0
16 -5 -11 -6 12 0
-17 1 0
-17 9 0
-17 2 10 0
-17 -2 -10 0
17 -1 -9 2 -10 0
17 -1 -9 -2 10 0
-18 3 0
-18 11 0
-18 4 12 0
-18 -4 -12 0
18 -3 -11 4 -12 0
18 -3 -11 -4 12 0
-19 1 0
-19 3 0
-19 2 4 0
-19 -2 -4 0
19 -1 -3 2 -4 0
19 -1 -3 -2 4 0
-20 9 0
-20 11 0
-20 10 12 0
-20 -10 -12 0
20 -9 -11 10 -12 0
20 -9 -11 -10 12 0
-21 1 0
-21 5 0
-21 2 6 0
-21 -2 -6 0
21 -1 -5 2 -6 0
21 -1 -5 -2 6 0
-22 7 0
-22 11 0
-22 8 12 0
-22 -8 -12 0
22 -7 -11 8 -12 0
22 -7 -11 -8 12 0
-23 3 0
-23 5 0
-23 4 6 0
-23 -4 -6 0
23 -3 -5 4 -6 0
23 -3 -5 -4 6 0
-24 7 0
-24 9 0
-24 8 10 0
-24 -8 -10 0
24 -7 -9 8 -10 0
24 -7 -9 -8 10 0
c Graph as few edges
-25 30 0
-30 25 3 0
-26 31 0
-31 26 3 0
-25 -3 31 0
-31 26 25 0
-27 32 0
-32 27 3 0
-26 -3 32 0
-32 27 26 0
-28 33 0
-33 28 3 0
-27 -3 33 0
-33 28 27 0
-29 34 0
-34 29 3 0
-28 -3 34 0
-34 29 28 0
-30 35 0
-35 30 5 0
-31 36 0
-36 31 5 0
-30 -5 36 0
-36 31 30 0
-32 37 0
-37 32 5 0
-31 -5 37 0
-37 32 31 0
-33 38 0
-38 33 5 0
-32 -5 38 0
-38 33 32 0
-34 39 0
-39 34 5 0
-33 -5 39 0
-39 34 33 0
-35 40 0
-40 35 7 0
-36 41 0
-41 36 7 0
-35 -7 41 0
-41 36 35 0
-37 42 0
-42 37 7 0
-36 -7 42 0
-42 37 36 0
-38 43 0
-43 38 7 0
-37 -7 43 0
-43 38 37 0
-39 44 0
-44 39 7 0
-38 -7 44 0
-44 39 38 0
-40 45 0
-45 40 9 0
-41 46 0
-46 41 9 0
-40 -9 46 0
-46 41 40 0
-42 47 0
-47 42 9 0
-41 -9 47 0
-47 42 41 0
-43 48 0
-48 43 9 0
-42 -9 48 0
-48 43 42 0
-44 49 0
-49 44 9 0
-43 -9 49 0
-49 44 43 0
-45 50 0
-50 45 11 0
-46 51 0
-51 46 11 0
-45 -11 51 0
-51 46 45 0
-47 52 0
-52 47 11 0
-46 -11 52 0
-52 47 46 0
-48 53 0
-53 48 11 0
-47 -11 53 0
-53 48 47 0
-49 54 0
-54 49 11 0
-48 -11 54 0
-54 49 48 0
25 0
-29 0
-34 0
-39 0
-44 0
-49 0
-54 0
53 0
c Variable for even degree
-54 -1 0
54 1 0
-55 -1 -54 0
-55 1 54 0
55 1 -54 0
55 -1 54 0
-56 -3 -55 0
-56 3 55 0
56 3 -55 0
56 -3 55 0
-57 -5 -56 0
-57 5 56 0
57 5 -56 0
57 -5 56 0
-58 1 0
58 -1 0
-59 -7 -58 0
-59 7 58 0
59 7 -58 0
59 -7 58 0
-60 -9 -59 0
-60 9 59 0
60 9 -59 0
60 -9 59 0
-61 3 0
61 -3 0
-62 -7 -61 0
-62 7 61 0
62 7 -61 0
62 -7 61 0
-63 -11 -62 0
-63 11 62 0
63 11 -62 0
63 -11 62 0
-64 5 0
64 -5 0
-65 -9 -64 0
-65 9 64 0
65 9 -64 0
65 -9 64 0
-66 -11 -65 0
-66 11 65 0
66 11 -65 0
66 -11 65 0
-57 -60 -63 0
-57 -60 -66 0
-57 -63 -66 0
-60 -63 -66 0
